DIMENSION: 18
EDGE_WEIGHT_TYPE: EXPLICIT
EDGE_WEIGHT_FORMAT: FULL_MATRIX
EDGE_WEIGHT_SECTION:
32767 36 32767 32767 32767 32767 32767 92 32767 32767 53 32767 21 32767 32767 32767 32767 32767 
36 32767 94 32767 32767 32767 79 86 32767 73 46 32767 32767 59 32767 32767 32767 32767 
32767 94 32767 32767 32767 32767 96 81 81 32767 32767 32767 32767 32767 32767 87 32767 32767 
32767 32767 32767 32767 59 32767 32767 32767 32767 32767 32767 34 32767 32767 32767 32767 82 32767 
32767 32767 32767 59 32767 32767 32767 32767 86 32767 32767 32767 32767 31 32767 32767 32767 44 
32767 32767 32767 32767 32767 32767 32767 32767 32767 73 32767 32767 29 32767 32767 32767 62 32767 
32767 79 96 32767 32767 32767 32767 32767 32767 32767 32767 75 32767 68 32767 32767 66 32767 
92 86 81 32767 32767 32767 32767 32767 32767 32767 80 32767 32767 32767 32767 32767 32767 32767 
32767 32767 81 32767 86 32767 32767 32767 32767 32767 32767 32767 32767 13 29 32767 32767 8 
32767 73 32767 32767 32767 73 32767 32767 32767 32767 32767 75 32767 74 32767 32767 32767 32767 
53 46 32767 32767 32767 32767 32767 80 32767 32767 32767 8 32767 32767 21 23 83 32767 
32767 32767 32767 34 32767 32767 75 32767 32767 75 8 32767 32767 32767 32767 32767 32767 32767 
21 32767 32767 32767 32767 29 32767 32767 32767 32767 32767 32767 32767 5 32767 32767 32767 13 
32767 59 32767 32767 31 32767 68 32767 13 74 32767 32767 5 32767 33 32767 32767 62 
32767 32767 32767 32767 32767 32767 32767 32767 29 32767 21 32767 32767 33 32767 32767 21 36 
32767 32767 87 32767 32767 32767 32767 32767 32767 32767 23 32767 32767 32767 32767 32767 82 32767 
32767 32767 32767 82 32767 62 66 32767 32767 32767 83 32767 32767 32767 21 82 32767 91 
32767 32767 32767 32767 44 32767 32767 32767 8 32767 32767 32767 13 62 36 32767 91 32767 
EOF